0 10
1 10
2 10
3 10
4 10
5 10
6 10
7 10
8 10
9 10
0 20
1 20
2 20
3 20
4 20
5 20
6 20
7 20
8 20
9 20
0 30
1 30
2 30
3 30
4 30
5 30
6 30
7 30
8 30
9 30
0 40
1 40
2 40
3 40
4 40
5 40
6 40
7 40
8 40
9 40
0 50
1 50
2 50
3 50
4 50
5 50
6 50
7 50
8 50
9 50
0 60
1 60
2 60
3 60
4 60
5 60
6 60
7 60
8 60
9 60
0 70
1 70
2 70
3 70
4 70
5 70
6 70
7 70
8 70
9 70
0 80
1 80
2 80
3 80
4 80
5 80
6 80
7 80
8 80
9 80
0 90
1 90
2 90
3 90
4 90
5 90
6 90
7 90
8 90
9 90
0 100
1 100
2 100
3 100
4 100
5 100
6 100
7 100
8 100
9 100
